************************************************************************
file with basedata            : n/a
initial value random generator: n/a
************************************************************************
projects                      :  1
jobs (incl. supersource/sink ):  32
horizon                       :  173
RESOURCES
  - renewable                 :  4   R
  - nonrenewable              :  0   N
  - doubly constrained        :  0   D
************************************************************************
PROJECT INFORMATION:
pronr.  #jobs rel.date duedate tardcost  MPM-Time
    1     30      0       48       27       48
************************************************************************
PRECEDENCE RELATIONS:
jobnr.    #modes  #successors   successors
   1        1          3           2   3   4
   2        1          3           5  10  13
   3        1          3           6   9  15
   4        1          1          28
   5        1          2          12  29
   6        1          3           7   8  13
   7        1          3          16  19  22
   8        1          1          31
   9        1          1          16
  10        1          2          11  14
  11        1          1          15
  12        1          2          21  23
  13        1          1          25
  14        1          1          24
  15        1          3          17  26  27
  16        1          1          24
  17        1          2          18  20
  18        1          1          21
  19        1          1          23
  20        1          1          21
  21        1          1          30
  22        1          1          26
  23        1          1          25
  24        1          2          28  29
  25        1          1          30
  26        1          1          29
  27        1          1          31
  28        1          1          30
  29        1          1          32
  30        1          1          32
  31        1          1          32
  32        1          0        
************************************************************************
REQUESTS/DURATIONS:
jobnr. mode duration  R 1  R 2  R 3  R 4
------------------------------------------------------------------------
  1      1     0    
  2      1     1       3
                       1
                       3
                       2
  3      1     5       1   1   2   2   2
                       4   4   7   7   7
                       3   3   6   6   6
                       1   1   1   1   1
  4      1     7       0   0   0   0   0   0   0
                       5   3   5   5   3   5   5
                      10   5  10  10   5  10  10
                       2   1   2   2   1   2   2
  5      1     2       4   4
                       2   2
                       3   3
                       7   7
  6      1     8       5   5   5   5   5   3   5   3
                       4   4   4   4   4   2   4   2
                       6   6   6   6   6   3   6   3
                       7   7   7   7   7   4   7   4
  7      1    10       1   2   2   1   2   2   2   2   2   2
                       3   6   6   3   6   6   6   6   6   6
                       0   0   0   0   0   0   0   0   0   0
                       4   7   7   4   7   7   7   7   7   7
  8      1     3       2   2   1
                       3   3   2
                       0   0   0
                       2   2   1
  9      1     7       3   3   3   3   3   3   3
                       7   7   7   7   7   7   7
                       7   7   7   7   7   7   7
                       0   0   0   0   0   0   0
 10      1     2       2   4
                       2   3
                       0   0
                       4   7
 11      1    10       9   9   9   9   9   9   9   9   5   9
                      10  10  10  10  10  10  10  10   5  10
                       3   3   3   3   3   3   3   3   2   3
                       4   4   4   4   4   4   4   4   2   4
 12      1     7       4   2   4   4   4   2   4
                       0   0   0   0   0   0   0
                       1   1   1   1   1   1   1
                       0   0   0   0   0   0   0
 13      1     9       0   0   0   0   0   0   0   0   0
                       0   0   0   0   0   0   0   0   0
                       3   3   3   3   3   3   3   3   3
                       7   7   7   7   7   7   7   7   7
 14      1     5       0   0   0   0   0
                       0   0   0   0   0
                       6   6   6   6   6
                       0   0   0   0   0
 15      1     5       0   0   0   0   0
                       2   2   2   2   2
                       6   6   6   6   6
                       2   2   2   2   2
 16      1     6       5   9   5   9   9   9
                       0   0   0   0   0   0
                       4   7   4   7   7   7
                       1   2   1   2   2   2
 17      1     9       7   4   7   7   7   7   7   7   4
                       3   2   3   3   3   3   3   3   2
                       4   2   4   4   4   4   4   4   2
                       3   2   3   3   3   3   3   3   2
 18      1     6       0   0   0   0   0   0
                       0   0   0   0   0   0
                       9   9   9   9   9   9
                       0   0   0   0   0   0
 19      1     6       0   0   0   0   0   0
                       8   8   8   4   8   8
                       0   0   0   0   0   0
                       4   4   4   2   4   4
 20      1     7       0   0   0   0   0   0   0
                       5   5   5   3   5   5   5
                       1   1   1   1   1   1   1
                       5   5   5   3   5   5   5
 21      1     4       4   2   4   4
                       7   4   7   7
                       0   0   0   0
                       7   4   7   7
 22      1     8       0   0   0   0   0   0   0   0
                       8   4   8   8   4   8   8   4
                       0   0   0   0   0   0   0   0
                       4   2   4   4   2   4   4   2
 23      1     5       3   3   2   2   2
                       5   5   3   3   3
                       0   0   0   0   0
                       4   4   2   2   2
 24      1    10       2   2   2   2   2   1   2   2   2   1
                       7   7   7   7   7   4   7   7   7   4
                       5   5   5   5   5   3   5   5   5   3
                       1   1   1   1   1   1   1   1   1   1
 25      1     5       6   3   6   6   3
                       5   3   5   5   3
                      10   5  10  10   5
                       3   2   3   3   2
 26      1     3       2   1   2
                      10   5  10
                       0   0   0
                       8   4   8
 27      1     7       2   2   2   1   2   2   1
                      10  10  10   5  10  10   5
                       0   0   0   0   0   0   0
                       0   0   0   0   0   0   0
 28      1     5       6   6   6   6   3
                       8   8   8   8   4
                       0   0   0   0   0
                       3   3   3   3   2
 29      1     2       4   4
                       1   1
                      10  10
                       7   7
 30      1     4       3   3   3   3
                       3   3   3   3
                       1   1   1   1
                       5   5   5   5
 31      1     5       0   0   0   0   0
                       5   5   5   5   5
                       1   1   1   1   1
                       1   1   1   1   1
 32      1     0    
************************************************************************
RESOURCEAVAILABILITIES:
  R 1  R 2  R 3  R 4

  17  17  17  17  17  17  17  17  17  17  17   9  17  17  17  17   9  17   9  17  17  17   9  17  17  17   9  17  17  17  17   9  17  17  17  17   9  17  17  17  17  17  17  17  17  17  17   9   9  17  17   9  17  17  17  17   9  17   9  17  17  17  17  17  17  17  17  17  17  17  17  17  17  17  17  17   9  17  17  17  17  17  17  17   9  17  17  17  17  17  17   9  17  17  17  17  17  17  17  17   9  17   9  17  17  17  17  17   9  17  17  17  17  17  17  17  17   9  17  17  17  17  17  17  17   9   9  17  17  17  17   9  17  17  17  17  17  17  17  17   9  17  17   9  17  17  17  17   9  17  17  17  17  17  17  17  17  17   9  17  17  17  17  17   9  17  17  17  17   9  17  17  17

  24  24  24  24  24  24  24  24  24  24  24  12  24  24  24  24  12  24  12  24  24  24  12  24  24  24  12  24  24  24  24  12  24  24  24  24  12  24  24  24  24  24  24  24  24  24  24  12  12  24  24  12  24  24  24  24  12  24  12  24  24  24  24  24  24  24  24  24  24  24  24  24  24  24  24  24  12  24  24  24  24  24  24  24  12  24  24  24  24  24  24  12  24  24  24  24  24  24  24  24  12  24  12  24  24  24  24  24  12  24  24  24  24  24  24  24  24  12  24  24  24  24  24  24  24  12  12  24  24  24  24  12  24  24  24  24  24  24  24  24  12  24  24  12  24  24  24  24  12  24  24  24  24  24  24  24  24  24  12  24  24  24  24  24  12  24  24  24  24  12  24  24  24

  26  26  26  26  26  26  26  26  26  26  26  13  26  26  26  26  13  26  13  26  26  26  13  26  26  26  13  26  26  26  26  13  26  26  26  26  13  26  26  26  26  26  26  26  26  26  26  13  13  26  26  13  26  26  26  26  13  26  13  26  26  26  26  26  26  26  26  26  26  26  26  26  26  26  26  26  13  26  26  26  26  26  26  26  13  26  26  26  26  26  26  13  26  26  26  26  26  26  26  26  13  26  13  26  26  26  26  26  13  26  26  26  26  26  26  26  26  13  26  26  26  26  26  26  26  13  13  26  26  26  26  13  26  26  26  26  26  26  26  26  13  26  26  13  26  26  26  26  13  26  26  26  26  26  26  26  26  26  13  26  26  26  26  26  13  26  26  26  26  13  26  26  26

  15  15  15  15  15  15  15  15  15  15  15   8  15  15  15  15   8  15   8  15  15  15   8  15  15  15   8  15  15  15  15   8  15  15  15  15   8  15  15  15  15  15  15  15  15  15  15   8   8  15  15   8  15  15  15  15   8  15   8  15  15  15  15  15  15  15  15  15  15  15  15  15  15  15  15  15   8  15  15  15  15  15  15  15   8  15  15  15  15  15  15   8  15  15  15  15  15  15  15  15   8  15   8  15  15  15  15  15   8  15  15  15  15  15  15  15  15   8  15  15  15  15  15  15  15   8   8  15  15  15  15   8  15  15  15  15  15  15  15  15   8  15  15   8  15  15  15  15   8  15  15  15  15  15  15  15  15  15   8  15  15  15  15  15   8  15  15  15  15   8  15  15  15

************************************************************************
